\ File written by HiGHS .lp file handler
min
 obj: -2 x2 -1 x3 -3 x4 -2 x5 -4 x6 -3 x7 -5 x8 
st
 con1: -1 x1 -1 x2 -1 x17 = -1
 con2: -1 x3 -1 x4 -1 x18 = -1
 con3: -1 x5 -1 x6 -1 x19 = -1
 con4: -1 x7 -1 x8 -1 x20 = -1
 con5: -1 x1 -1 x3 -1 x5 -1 x7 -1 x21 = -2
 con6: -1 x2 -1 x4 -1 x6 -1 x8 -1 x22 = -2
 con7: +2 x1 +1 x3 -1 x7 -1 x23 = +0
 con8: +5 x1 +3 x3 -3 x5 -1 x7 -1 x24 = +0
 con9: +1 x2 -1 x4 -3 x6 -5 x8 -1 x25 = +0
 con10: +1 x2 -3 x6 -2 x8 -1 x26 = +0
 con11: +1 x1 +1 x9 = +1
 con12: +1 x2 +1 x10 = +1
 con13: +1 x3 +1 x11 = +1
 con14: +1 x4 +1 x12 = +1
 con15: +1 x5 +1 x13 = +1
 con16: +1 x6 +1 x14 = +1
 con17: +1 x7 +1 x15 = +1
 con18: +1 x8 +1 x16 = +1
bounds
end
